%SAT
CapT = 500.0;
CapH = 300.0;
CapN = 1000.0;
Ct = 25.0;
Ch = 23.0;
Cn = 21.0;
n = 7;
S = 4;

dsi = [| 500.0,300.0,300.0,400.0,250.0,328.0,230.0 | 
	     450.0,563.0,812.0,698.0,715.0,654.0,759.0 |
         150.0,133.0,122.0,128.0,115.0,154.0,159.0 | 
	     220.0,648.0,289.0,290.0,100.0,200.0,100.0 |];
